problems/csplib-prob030/BalancedAcademicCurriculumProblem-models/compact/O2/minion/model-bacp-3-solution000001.solution
language Essence 1.3

letting curr be
        function(1 --> 10, 2 --> 10, 3 --> 3, 4 --> 2, 5 --> 9, 6 --> 9, 7 --> 9, 8 --> 2, 9 --> 1, 10 --> 8, 11 --> 8,
                 12 --> 7, 13 --> 1, 14 --> 7, 15 --> 7, 16 --> 7, 17 --> 7, 18 --> 1, 19 --> 1, 20 --> 6, 21 --> 6,
                 22 --> 6, 23 --> 5, 24 --> 5, 25 --> 5, 26 --> 3, 27 --> 4, 28 --> 4, 29 --> 1, 30 --> 2, 31 --> 2,
                 32 --> 2, 33 --> 4, 34 --> 2, 35 --> 3, 36 --> 1, 37 --> 3, 38 --> 2, 39 --> 1, 40 --> 2, 41 --> 2,
                 42 --> 4, 43 --> 1, 44 --> 1, 45 --> 2, 46 --> 3, 47 --> 1, 48 --> 3, 49 --> 3, 50 --> 3)
