problems/csplib-prob030/BalancedAcademicCurriculumProblem-models/noch/O0/minion/model-bacp-3-solution000001.eprime-solution
language ESSENCE' 1.0

letting curr_Function1D be
        [10, 10, 3, 2, 9, 9, 9, 2, 1, 8, 8, 7, 1, 7, 7, 7, 7, 1, 1, 6, 6, 6, 5, 5, 5, 3, 4, 4, 1, 2, 2, 2, 4, 2, 3, 1,
         3, 2, 1, 2, 2, 4, 1, 1, 2, 3, 1, 3, 3, 3;
             int(1..50)]
